   71
# CELL(abcABC):   40.0  40.0  40.0  90.0  90.0  90.0  cell{angstrom} Traj: positions{angstrom}
C -0.90388099 3.28138679 0.93121823
C -2.10528135 2.86841803 0.22678107
C -2.29252947 2.94250760 -1.17035062
C -3.27122667 1.87348716 -1.63952526
C -2.98914691 1.11105352 -2.70346782
C 2.38786726 2.20741752 -1.43904631
C 2.41127766 -1.81292377 -1.68266017
C -0.81946764 -3.39033548 0.37474185
C -2.95024210 -0.30489822 2.06992465
C -2.67974647 1.17367367 1.95949729
C -1.84702257 -2.74504382 1.07768731
C 1.58970511 -2.94997602 -1.25764331
C 2.87864119 0.95045735 -1.93444480
C 0.23309711 3.46572018 0.12325332
C 1.24313781 2.76390985 -2.04037068
C 1.94180968 -1.06891915 -2.77383745
C -0.82848706 -3.42073950 -1.05903413
C -3.47444380 -0.94520610 0.88421611
C -1.61389655 1.71375739 2.67990199
C -1.48104099 -2.26272003 2.38350749
C 1.66216459 -3.24836612 0.08825245
C 3.51845687 0.14576713 -0.94949133
C 1.51148172 3.32428441 0.66108170
C -0.78445892 2.78359735 2.21865461
C 2.59774305 2.59913098 -0.09738862
C 3.35931032 -1.24747192 -0.89316265
C 0.49212037 -3.59552211 0.89305220
C -2.09010695 -1.07161625 2.87377224
C -2.97583083 1.88209860 0.74827788
C -2.91899668 -2.14148994 0.38583996
C 0.32464993 -3.19439275 -1.80728771
C 2.13505266 0.32260944 -2.93898854
C 0.18189636 3.32821510 -1.30324840
C 0.60988699 2.14672732 -3.17190078
C 0.74159681 -1.39577990 -3.43566723
C -1.97974554 -2.82712989 -1.74327632
C -3.82122137 -0.14518350 -0.29453782
C -0.86572789 0.96715710 3.59903831
C -0.22731575 -2.44703339 2.98422084
C 2.70108404 -2.69445299 0.96099191
C 3.78310764 0.61093559 0.36228902
C 1.62546076 2.81936621 1.99468225
C 0.53334735 2.58282258 2.76582131
C 3.33010349 1.83468704 0.83777617
C 3.50168051 -1.69792650 0.45351886
C 0.78369225 -3.01096426 2.19008985
C -1.06522386 -0.40954352 3.65182699
C -3.66644141 1.24031640 -0.39372468
C -2.92263663 -2.17015660 -1.04214178
C -0.11488415 -2.38610092 -2.97270521
C 1.05501024 0.93353918 -3.65005512
C -1.15367591 3.09637054 -1.88734519
C -0.85839354 2.33851309 -3.07459984
C 0.13835380 -0.17307243 -3.97370274
C -1.54059827 -2.14414745 -2.94797394
C -3.54622050 -0.95892080 -1.49929415
C 0.50144455 1.42251862 3.60867455
C 0.08535583 -1.31534543 3.75021159
C 2.12215607 -2.52060893 2.27874898
C 3.86366209 -0.58245735 1.25814466
C 2.74693490 1.90545349 2.11217904
C -1.72474282 1.34975586 -3.43950170
C -1.20855712 0.08488342 -3.94114251
C -2.07217342 -0.95033313 -3.39061995
C -3.12315797 -0.35835540 -2.68192036
C 1.58969702 0.58518350 3.78707098
C 1.36794024 -0.84482595 3.82967615
C 2.41873936 -1.40244886 3.05016263
C 3.33246165 -0.44504889 2.48492475
C 2.72336988 0.83492120 2.93289585
He 0.72728959 -0.05933568 0.91509826
