72
# CELL(abcABC):   40.0  40.0  40.0  90.0  90.0  90.0  cell{angstrom} Traj: positions{angstrom}
C 0.32338125 -3.48909613 0.21050574
C -0.52181365 -3.36940286 1.31130133
C -0.04381040 -2.83463596 2.57282236
C -1.07751279 -2.12156620 3.18639564
C -0.74142339 -0.96808894 3.91070298
C 3.47100135 -0.72199665 0.32918789
C 1.79941968 3.00691414 -0.03674384
C -2.24309403 2.59960220 -0.30233148
C -3.18896393 -1.48052495 -0.22004879
C -2.38536624 -2.63246126 -0.09258820
C -3.07951581 1.42247418 -0.29798006
C 0.48311043 3.51136277 -0.13128956
C 3.53756090 0.65304658 0.32326709
C 1.71615123 -3.06135847 0.32353082
C 3.00901829 -1.35363465 1.53252529
C 2.19392770 2.53543446 1.26029439
C -1.68887090 2.98021566 0.90902641
C -3.51072473 -0.70097838 0.93348087
C -1.62501281 -3.05222312 -1.23473731
C -3.13615226 0.61924792 -1.51535255
C -0.12916541 3.33290147 -1.37529764
C 3.30394631 1.28391659 -0.95966611
C 2.41923385 -2.70888218 -0.83552528
C -0.24630640 -3.46489198 -1.05408810
C 3.27985735 -1.52861510 -0.81907691
C 2.51895331 2.48166583 -1.07834741
C -1.47522902 2.87479599 -1.45325600
C -3.24936820 -0.79383094 -1.46542176
C -1.89342555 -2.98545707 1.18153489
C -3.36977093 0.73155787 0.89248253
C -0.38221851 3.53856129 0.98985796
C 3.07669375 1.44018300 1.41068383
C 2.18538398 -2.51593882 1.50984643
C 2.65811252 -0.57974313 2.68544086
C 1.42099221 2.71479803 2.47693140
C -2.07932245 2.36634581 2.17606157
C -2.91043368 -1.08268571 2.19478737
C -1.68999159 -2.37971146 -2.49924573
C -2.48666489 1.04821091 -2.67625601
C 0.60160244 2.91163892 -2.55761429
C 3.15782526 0.51565410 -2.17347435
C 1.84669880 -2.87415703 -2.16021238
C 0.47078064 -3.10613595 -2.20893468
C 3.15023386 -0.87497292 -2.08121841
C 1.91534087 2.46973960 -2.40523910
C -1.58836551 2.13999718 -2.67701814
C -2.52720275 -1.28433796 -2.65714407
C -2.18761176 -2.22220872 2.33338044
C -2.89565805 1.23519825 2.09849519
C 0.08523289 3.24413958 2.34455408
C 2.69235054 0.79467022 2.62596809
C 1.25683923 -2.42615995 2.64968868
C 1.62432722 -1.25246096 3.41926788
C 1.67312509 1.58017646 3.32771007
C -1.00378986 2.50028554 3.03194547
C -2.62580471 0.09163572 3.00837130
C -0.47127003 -2.39618816 -3.12496212
C -2.06157026 -0.15287773 -3.41264014
C -0.33787767 2.18827364 -3.40435383
C 2.21271655 1.19546200 -3.02527314
C 2.24023510 -1.69338916 -2.94370678
C 0.58066213 -0.55900417 4.05433173
C 0.60607241 0.90879421 3.95888295
C -0.70956996 1.37752389 3.87669615
C -1.52019563 0.18449344 3.78657051
C 0.02676120 -1.35359079 -3.90566248
C -0.80072295 -0.12517424 -4.02096230
C 0.05293292 1.01423783 -3.99033039
C 1.40697503 0.45436475 -3.83518712
C 1.39652539 -0.97916608 -3.79761003
He -0.12615955 0.24086980 -1.33629860
He 0.14601393 -0.24238758 0.88978573
