72   
Lattice="50.0 0.0 0.0 0.0
C 1.41292571 0.05865172 -3.28265462
C 0.18031569 -0.54403322 -3.73446260
C -0.27404879 -1.86327723 -3.43640312
C -1.68357998 -1.98280745 -3.20665897
C -2.12697690 -2.80347701 -2.20022909
C 3.03327521 -2.03620630 -0.01384546
C 0.36015378 -1.29433515 3.26440455
C -2.77049674 1.25770056 2.03345729
C -1.92827201 1.93581450 -1.92997983
C -0.96089427 1.66661712 -2.97949390
C -2.96203656 1.74606219 0.75359817
C -0.83191016 -0.44786327 3.48728498
C 2.48357793 -2.13513801 1.34274857
C 2.32475660 -0.78467123 -2.49312542
C 2.23667859 -2.74136495 -0.97632145
C 0.24692413 -2.43270066 2.47249945
C -2.90768246 -0.24068679 2.26101222
C -3.01199718 1.07027475 -1.63729087
C 0.30135955 2.21784289 -2.90299267
C -2.04124045 2.79344613 0.33807512
C -0.66312249 0.93426494 3.44241898
C 2.63382719 -1.04409996 2.16551821
C 3.28111904 -0.20841119 -1.66840279
C 1.45899616 1.40634638 -3.09916083
C 3.53483236 -0.79112284 -0.38595462
C 1.66804845 -0.70297985 3.24117846
C -1.61074535 1.76565885 2.78627996
C -1.56779337 2.91629643 -0.97657665
C -0.97079436 0.28909942 -3.45568604
C -3.41147608 0.96924510 -0.31718036
C -2.01624899 -1.03686152 3.01225490
C 1.30831615 -2.90227179 1.57911073
C 1.88177293 -2.10073698 -2.25028673
C 1.14694653 -3.61281820 -0.72379224
C -0.94492482 -3.05467037 2.15581584
C -3.53021268 -0.97237548 1.12863306
C -3.09524502 -0.19464569 -2.27775119
C 0.65898753 3.27986481 -1.96500789
C -0.99580314 3.43273986 1.13838881
C 0.65231755 1.54695162 3.60760415
C 3.33931387 0.16455898 1.80643489
C 3.36091864 1.24640804 -1.50843843
C 2.50481360 2.00117224 -2.25653642
C 3.86912901 0.29959920 0.52778350
C 1.71988371 0.67089249 3.42399017
C -0.78149708 2.84033862 2.36418148
C -0.30298302 3.52072400 -0.94215879
C -2.10747249 -0.58713664 -3.12181937
C -3.82371314 -0.32790194 -0.07315514
C -2.07227190 -2.33336218 2.36936839
C 0.67734625 -3.64848432 0.59312409
C 0.63682375 -2.61355609 -2.68999487
C 0.12641561 -3.56011127 -1.77298042
C -0.70665493 -3.68591269 0.92064119
C -3.04022565 -2.38825155 1.21458282
C -3.59360756 -1.11560318 -1.19391362
C 2.02941303 3.15118059 -1.51549937
C 0.11277171 3.83163029 0.36191927
C 0.61563323 2.69013845 2.78321324
C 2.84844408 1.24414619 2.61820149
C 3.85595691 1.48851847 -0.18109619
C -1.28126456 -3.61891130 -1.43266021
C -1.68502480 -3.74167687 -0.09524974
C -2.85857196 -3.02286213 0.06801093
C -3.12748644 -2.41373416 -1.19880873
C 2.36625020 3.33646150 -0.12887583
C 1.38132249 3.86958475 0.76070884
C 1.59856357 3.15595031 1.94031246
C 2.71560783 2.37656754 1.84311857
C 3.30992218 2.49460651 0.58038058
He -0.01789396 -0.45144869 0.04007608
He 1.33010192 1.00112886 -0.30273338
