71

C 3.260571 1.438239 0.009865
C 3.397692 0.700596 1.205007
C 2.797073 1.142733 2.435783
C 2.431098 -0.012462 3.209920
C 1.258683 -0.013169 3.955965
C -0.348670 3.506549 0.011070
C -3.431063 0.713114 0.009733
C -1.726799 -3.081631 0.007707
C 2.408849 -2.633473 0.007778
C 3.261380 -1.459403 0.008351
C -0.346746 -3.529617 0.007414
C -3.430673 -0.737837 0.008981
C -1.728479 3.057820 0.010892
C 2.407415 2.611856 0.010510
C 0.394693 3.408539 1.206517
C -3.108701 1.389328 1.205597
C -2.270881 -2.566546 1.203500
C 1.750299 -2.992208 1.203150
C 3.397995 -0.721698 -1.186786
C 0.396487 -3.431221 -1.188074
C -3.108020 -1.413880 -1.186883
C -2.272349 2.542448 -1.184871
C 1.748580 2.970243 -1.184788
C 3.397603 0.701838 -1.186034
C 0.394614 3.409777 -1.184511
C -3.108777 1.390567 -1.185440
C -2.270971 -2.565302 -1.187490
C 1.750233 -2.990968 -1.187921
C 3.398078 -0.722934 1.204271
C 0.396560 -3.432458 1.202958
C -3.107939 -1.415119 1.204142
C -2.272277 2.541211 1.206164
C 1.748664 2.969005 1.206241
C -0.211988 2.973464 2.436835
C -2.882965 0.677416 2.435740
C -1.524634 -2.572349 2.433980
C 1.985811 -2.284774 2.434056
C 2.797516 -1.164134 -2.417499
C -0.210519 -2.996420 -2.418278
C -2.882713 -0.701843 -2.417005
C -1.526178 2.548614 -2.415373
C 1.984382 2.262889 -2.415642
C 2.796869 1.145241 -2.416264
C -0.212151 2.975948 -2.415201
C -2.883088 0.679923 -2.416290
C -1.524751 -2.569744 -2.417935
C 1.985668 -2.282263 -2.418101
C 2.797701 -1.166660 2.434586
C -0.210362 -2.999003 2.433729
C -2.882590 -0.704374 2.435024
C -1.526034 2.546118 2.436666
C 1.984577 2.260405 2.436387
C 0.773218 2.268118 3.211154
C -1.908057 1.396130 3.210804
C -1.907291 -1.423372 3.209323
C 0.774459 -2.293938 3.208806
C 2.430829 -0.009133 -3.191530
C 0.774223 -2.290560 -3.192662
C -1.907452 -1.420008 -3.192052
C -1.908224 1.399419 -3.190619
C 0.772979 2.271393 -3.190262
C 0.411243 1.152577 3.956588
C -0.959323 0.706848 3.956405
C -0.958927 -0.734372 3.955658
C 0.411868 -1.179372 3.955388
C 1.258375 -0.009063 -3.937429
C 0.411589 -1.175224 -3.938003
C -0.959162 -0.730247 -3.937698
C -0.959557 0.710925 -3.936949
C 0.410961 1.156639 -3.936776
He 0.032473 -0.011153 -0.709278
