72
# CELL(abcABC):   75.58904    75.58904    75.58904    90.00000    90.00000    90.00000  Step:     2886980  Bead:       0 positions{angstrom}  cell{atomic_unit}
       C  2.04109e+00 -1.33088e+00 -2.62115e+00
       C  3.10167e+00 -7.27864e-01 -1.91452e+00
       C  3.18589e+00  6.71898e-01 -1.93114e+00
       C  3.73100e+00  1.21246e+00 -7.91053e-01
       C  3.33338e+00  2.50518e+00 -2.53178e-01
       C -1.23137e+00  1.20468e+00 -3.08111e+00
       C -2.86659e+00  2.06222e+00  7.96213e-01
       C -3.16976e-01  7.16274e-02  3.56191e+00
       C  2.51127e+00 -1.96590e+00  1.42716e+00
       C  2.88105e+00 -2.17437e+00  7.97482e-02
       C  7.79902e-01 -8.34773e-01  3.30589e+00
       C -2.39830e+00  1.60439e+00  2.09477e+00
       C -2.16665e+00  1.80720e+00 -2.02352e+00
       C  1.09615e+00 -5.53448e-01 -3.45631e+00
       C  5.55159e-02  1.83519e+00 -3.26655e+00
       C -2.13758e+00  3.07137e+00  9.05636e-02
       C -2.91177e-01  1.45654e+00  3.32097e+00
       C  3.02138e+00 -8.20116e-01  2.11964e+00
       C  2.05892e+00 -2.99276e+00 -7.98609e-01
       C  6.10822e-01 -2.18251e+00  2.91941e+00
       C -2.68948e+00  2.83602e-01  2.47847e+00
       C -3.16288e+00  9.98705e-01 -1.40324e+00
       C -2.24795e-01 -1.06555e+00 -3.58493e+00
       C  1.61545e+00 -2.57615e+00 -2.12212e+00
       C -1.40788e+00 -2.01703e-01 -3.38662e+00
       C -3.52142e+00  1.11229e+00 -9.85423e-02
       C -1.65751e+00 -4.49278e-01  3.20896e+00
       C  1.50592e+00 -2.82667e+00  2.01172e+00
       C  3.58549e+00 -1.07451e+00 -5.94607e-01
       C  2.02285e+00 -2.98278e-01  3.12033e+00
       C -1.33004e+00  2.25480e+00  2.71695e+00
       C -1.81394e+00  2.96769e+00 -1.34645e+00
       C  1.30830e+00  9.26622e-01 -3.49317e+00
       C  4.25732e-01  2.85722e+00 -2.46623e+00
       C -9.93126e-01  3.77370e+00  6.50423e-01
       C  1.03428e+00  2.05725e+00  3.15271e+00
       C  3.62943e+00  2.06033e-01  1.50617e+00
       C  1.07569e+00 -3.79921e+00 -2.04581e-01
       C -5.94701e-01 -2.76266e+00  2.76304e+00
       C -3.39551e+00 -6.61765e-01  1.69348e+00
       C -3.30272e+00 -3.90345e-01 -1.84225e+00
       C -5.84132e-01 -2.28073e+00 -2.99283e+00
       C  3.07162e-01 -3.15075e+00 -2.24273e+00
       C -2.41304e+00 -9.47951e-01 -2.75746e+00
       C -3.87725e+00 -2.17577e-01  3.81892e-01
       C -1.76774e+00 -1.87227e+00  2.83106e+00
       C  7.55756e-01 -3.66030e+00  1.24898e+00
       C  3.85074e+00  1.42859e-01  8.97916e-02
       C  2.17993e+00  1.16539e+00  3.04849e+00
       C -5.58521e-01  3.25705e+00  1.82970e+00
       C -4.84520e-01  3.55807e+00 -1.62211e+00
       C  2.28060e+00  1.53773e+00 -2.67174e+00
       C  1.82748e+00  2.81585e+00 -2.16440e+00
       C  5.80887e-02  4.02891e+00 -3.29896e-01
       C  8.80458e-01  3.26981e+00  2.32296e+00
       C  3.16174e+00  1.46334e+00  1.97886e+00
       C -9.00086e-02 -3.92639e+00 -1.06900e+00
       C -6.00506e-01 -3.62484e+00  1.56200e+00
       C -2.93321e+00 -1.90439e+00  1.89534e+00
       C -3.72073e+00 -1.17075e+00 -7.12634e-01
       C -1.97620e+00 -2.32376e+00 -2.68990e+00
       C  2.33302e+00  3.35646e+00 -9.73381e-01
       C  1.41163e+00  4.01280e+00  6.60826e-02
       C  1.83455e+00  3.51337e+00  1.28652e+00
       C  3.07397e+00  2.63493e+00  1.11167e+00
       C -1.44622e+00 -3.93558e+00 -7.95930e-01
       C -1.75930e+00 -3.80017e+00  6.71567e-01
       C -2.83699e+00 -2.85704e+00  8.32333e-01
       C -3.27334e+00 -2.49132e+00 -4.40861e-01
       C -2.37644e+00 -3.07898e+00 -1.50092e+00
      He -3.86219e-01 -1.04476e+00 -2.79118e-01
      He  8.40131e-01  1.21206e+00 -5.40593e-01
