71   
Lattice="50.0 0.0 0.0 0.0
C -1.19146438 -2.58863914 -2.14713208
C -0.85729313 -1.69810065 -3.14681014
C -1.75767920 -0.53519738 -3.24901461
C -0.97841288 0.50368800 -3.70695194
C -1.26003427 1.81092041 -3.43320301
C -3.31028428 -0.73462128 0.94474519
C -0.79555885 2.18580604 2.68850614
C 2.90793960 2.07879994 0.72697877
C 2.73637514 -0.86435176 -2.26575460
C 1.58271454 -1.80019785 -2.71242359
C 3.36399887 1.20984325 -0.32514866
C 0.57348601 2.41575340 2.41758322
C -2.94240228 0.30741042 1.88064321
C -2.35135169 -2.37066343 -1.30635663
C -3.69933730 -0.51177264 -0.39521718
C -1.89723861 2.61932130 1.83259077
C 1.91748012 3.08197222 0.50113631
C 2.59397800 0.46646612 -2.61963144
C 1.27507416 -2.84909956 -1.90407038
C 3.70594338 -0.10246397 -0.08972662
C 1.61128044 1.59090284 2.82478672
C -2.05254361 0.01383065 2.95877340
C -2.29644162 -2.83655856 0.04840365
C -0.11006526 -3.31638798 -1.61557577
C -2.72189648 -2.05979132 1.19912016
C -0.99383541 0.85000167 3.23602175
C 2.77185930 1.38451254 1.97579754
C 3.39905709 -1.11527085 -1.02641845
C 0.46521426 -1.24259507 -3.47634926
C 2.97420473 1.57657670 -1.76079768
C 0.81479229 3.32845543 1.40365304
C -2.93326476 1.71045132 1.43180753
C -3.15662583 -1.22760588 -1.43303703
C -3.63881426 0.95328686 -0.81249675
C -1.63858559 3.46761394 0.68623735
C 1.45805730 3.40828101 -0.87813475
C 1.42470489 0.98938492 -3.41131951
C 2.03921557 -3.06705644 -0.69845245
C 3.76400822 -0.71019373 1.26315461
C 1.46398644 0.41892396 3.68471514
C -1.61657176 -1.38052764 3.19548945
C -1.21026384 -3.67172019 0.55844787
C -0.07871353 -3.96529570 -0.30230887
C -1.98617366 -2.38012496 2.35048490
C 0.09233620 0.12693727 3.80433366
C 3.28035102 0.07900007 2.28031123
C 3.10269713 -2.30554812 -0.25400455
C 0.40839972 0.16729390 -3.83138513
C 2.07149602 2.72417908 -1.90350857
C -0.29285392 3.86781991 0.50714324
C -3.34249387 1.98069441 0.10459096
C -2.92397105 -0.31415660 -2.54282323
C -3.22301891 1.05022988 -2.17866636
C -2.45721599 2.96980249 -0.41158739
C 0.14379516 3.85098492 -0.88144357
C 1.11608729 2.32101140 -2.94903733
C 1.19809509 -3.69438157 0.24979525
C 3.21317069 -2.05531044 1.10350358
C 2.48381448 -0.48473244 3.26884730
C -0.34402634 -1.27722189 3.70641910
C -0.98966230 -3.38110107 1.92765430
C -2.50785392 2.06860379 -2.67464316
C -1.99299225 3.21097368 -1.72123892
C -0.73921354 3.64505043 -1.99911289
C -0.18636021 2.67599068 -3.03258446
C 1.43478268 -3.49426185 1.57131517
C 2.42516290 -2.60198765 2.09301153
C 2.03294815 -1.82657994 3.20137854
C 0.64389721 -2.18970783 3.42689390
C 0.29644039 -3.30664667 2.45889793
He -0.09486365 0.18201269 0.21744461
