72

C 3.263259 1.432834 0.003947
C 3.401212 0.694296 1.198430
C 2.801593 1.135275 2.430125
C 2.436201 -0.020518 3.203621
C 1.264451 -0.021921 3.950782
C -0.345540 3.500806 0.009424
C -3.427467 0.707677 0.007672
C -1.723448 -3.086529 0.001111
C 2.411673 -2.638358 -0.001141
C 3.264098 -1.464384 -0.000128
C -0.343494 -3.534455 -0.000469
C -3.427052 -0.743130 0.005631
C -1.725214 3.052077 0.009773
C 2.410144 2.606318 0.006217
C 0.398456 3.401798 1.204362
C -3.104447 1.382711 1.204010
C -2.266633 -2.572690 1.197835
C 1.754090 -2.998138 1.194426
C 3.399937 -0.725760 -1.194786
C 0.398782 -3.435011 -1.196471
C -3.105296 -1.417977 -1.191160
C -2.269772 2.537895 -1.186174
C 1.750653 2.965709 -1.188418
C 3.399525 0.697663 -1.192779
C 0.396786 3.405176 -1.186844
C -3.106081 1.386073 -1.187194
C -2.268302 -2.569270 -1.193376
C 1.752407 -2.994760 -1.196811
C 3.401616 -0.729111 1.196427
C 0.400435 -3.438423 1.194756
C -3.103628 -1.421356 1.200058
C -2.268115 2.534524 1.205033
C 1.752332 2.962334 1.202785
C -0.207286 2.965786 2.434817
C -2.878039 0.669869 2.433491
C -1.519785 -2.579656 2.427977
C 1.990421 -2.291976 2.425912
C 2.798870 -1.167078 -2.425649
C -0.208938 -2.999346 -2.426068
C -2.881014 -0.704989 -2.420978
C -1.524637 2.545302 -2.417345
C 1.985710 2.259708 -2.420245
C 2.798189 1.142114 -2.422388
C -0.210666 2.972659 -2.417686
C -2.881348 0.676714 -2.419004
C -1.523148 -2.572759 -2.424549
C 1.987020 -2.285140 -2.426632
C 2.802273 -1.173893 2.426896
C -0.205572 -3.006247 2.426449
C -2.877633 -0.711857 2.431551
C -1.521254 2.538438 2.435159
C 1.989093 2.252844 2.432260
C 0.778368 2.259856 3.207996
C -1.902741 1.387868 3.208687
C -1.901939 -1.431491 3.204738
C 0.779682 -2.301896 3.201599
C 2.431745 -0.011494 -3.198633
C 0.775223 -2.292851 -3.200646
C -1.906367 -1.422405 -3.197531
C -1.907175 1.396918 -3.193554
C 0.773891 2.268926 -3.194252
C 0.416958 1.143809 3.953020
C -0.953634 0.698050 3.953392
C -0.953212 -0.743200 3.951378
C 0.417622 -1.188180 3.949778
C 1.258941 -0.010776 -3.944152
C 0.412135 -1.177018 -3.945171
C -0.958705 -0.732039 -3.943559
C -0.959128 0.709198 -3.941544
C 0.411464 1.154971 -3.941913
He 0.046993 -0.007044 -1.162636
He 0.019463 -0.027070 1.170364
