72
# CELL(abcABC):   75.58904    75.58904    75.58904    90.00000    90.00000    90.00000  Step:       99000  Bead:       0 positions{angstrom}  cell{atomic_unit}
       C -1.89825e+00  1.57056e+00 -2.44001e+00
       C -2.59797e+00  2.95562e-01 -2.53000e+00
       C -1.96666e+00 -8.10982e-01 -3.17970e+00
       C -2.40768e+00 -1.98795e+00 -2.63034e+00
       C -1.39779e+00 -3.08049e+00 -2.44288e+00
       C  2.18861e+00  1.15975e+00 -2.57111e+00
       C  3.30418e+00 -9.04731e-01  9.83239e-01
       C -1.18034e-01 -1.69970e+00  3.15044e+00
       C -3.42472e+00 -1.26220e-01  1.00249e+00
       C -3.72434e+00  5.70094e-01 -1.88629e-01
       C -1.56541e+00 -1.40273e+00  2.90739e+00
       C  2.59776e+00 -1.49379e+00  2.12729e+00
       C  3.21082e+00  5.12462e-01 -1.52308e+00
       C -5.32457e-01  1.64499e+00 -3.02820e+00
       C  1.43173e+00  2.39407e-01 -3.36598e+00
       C  3.28826e+00 -1.57718e+00 -1.79280e-01
       C  4.71243e-01 -2.81674e+00  2.46936e+00
       C -3.20471e+00 -1.52668e+00  9.46437e-01
       C -3.25939e+00  1.99934e+00 -3.38313e-01
       C -2.07922e+00  2.20372e-02  3.13466e+00
       C  2.02288e+00 -5.09965e-01  2.91960e+00
       C  3.44599e+00  1.25682e+00 -4.46839e-01
       C  2.98186e-01  2.78765e+00 -2.57160e+00
       C -2.43210e+00  2.52256e+00 -1.44801e+00
       C  1.65048e+00  2.39166e+00 -2.37583e+00
       C  3.56488e+00  5.28848e-01  8.94200e-01
       C  7.58934e-01 -6.67860e-01  3.57049e+00
       C -2.83168e+00  5.81125e-01  2.07444e+00
       C -3.50776e+00 -2.04532e-01 -1.45735e+00
       C -2.13632e+00 -2.07504e+00  1.79735e+00
       C  1.82496e+00 -2.60839e+00  1.94251e+00
       C  3.36275e+00 -8.63107e-01 -1.51402e+00
       C  3.96594e-02  5.24025e-01 -3.63234e+00
       C  1.63238e+00 -1.14829e+00 -3.41696e+00
       C  2.68426e+00 -2.84548e+00 -4.11107e-01
       C -2.52230e-01 -3.61213e+00  1.53952e+00
       C -3.05178e+00 -2.28978e+00 -2.68985e-01
       C -2.72178e+00  2.68350e+00  9.01856e-01
       C -1.08135e+00  9.75135e-01  3.61965e+00
       C  2.48063e+00  8.35639e-01  2.98416e+00
       C  3.00983e+00  2.50829e+00 -2.52621e-01
       C -1.78128e-01  3.54467e+00 -1.49543e+00
       C -1.54818e+00  3.51258e+00 -9.96949e-01
       C  1.98288e+00  3.11345e+00 -1.11812e+00
       C  3.10497e+00  1.32301e+00  1.87225e+00
       C  2.60633e-01  6.66160e-01  3.81695e+00
       C -2.52709e+00  1.98983e+00  2.06705e+00
       C -3.25546e+00 -1.61476e+00 -1.42904e+00
       C -1.53893e+00 -3.18766e+00  1.16384e+00
       C  1.96224e+00 -3.38370e+00  7.86837e-01
       C  2.61957e+00 -1.67749e+00 -2.38019e+00
       C -6.63733e-01 -7.54743e-01 -3.77181e+00
       C  3.96629e-01 -1.82618e+00 -3.50145e+00
       C  2.19173e+00 -2.90329e+00 -1.68090e+00
       C  6.57708e-01 -3.94395e+00  4.47712e-01
       C -2.14584e+00 -3.44094e+00 -1.08407e-01
       C -1.64787e+00  3.59678e+00  4.92085e-01
       C -1.46274e+00  2.21231e+00  2.95950e+00
       C  1.33377e+00  1.53453e+00  3.49724e+00
       C  2.72660e+00  2.62353e+00  1.24515e+00
       C  9.06802e-01  3.78212e+00 -5.62550e-01
       C -2.49410e-02 -2.98394e+00 -2.95516e+00
       C  9.28630e-01 -3.60936e+00 -2.07120e+00
       C  1.62705e-01 -4.09158e+00 -9.38552e-01
       C -1.32346e+00 -3.81846e+00 -1.16165e+00
       C -5.47841e-01  3.79315e+00  1.36517e+00
       C -4.44869e-01  3.10154e+00  2.67008e+00
       C  9.75316e-01  2.73135e+00  2.91373e+00
       C  1.59461e+00  3.19797e+00  1.72709e+00
       C  7.14953e-01  4.02426e+00  7.87469e-01
      He  3.66262e-01 -9.87574e-01 -1.07730e+00
      He  3.21845e-01  8.45409e-01  6.76033e-01
