71
# CELL(abcABC):   75.58904    75.58904    75.58904    90.00000    90.00000    90.00000  Step:     3989980  Bead:       0 positions{angstrom}  cell{atomic_unit}
       C -1.35252e+00  3.22848e+00  4.61517e-01
       C -3.95701e-01  3.61850e+00 -4.89896e-01
       C  1.00773e+00  3.76659e+00 -1.73864e-01
       C  1.79247e+00  3.35895e+00 -1.23198e+00
       C  3.04006e+00  2.69782e+00 -1.12567e+00
       C  3.90393e-01  8.18270e-01  3.39995e+00
       C  1.62030e+00 -2.69296e+00  1.61085e+00
       C  7.72594e-01 -2.50918e+00 -2.46044e+00
       C -1.22833e+00  1.19892e+00 -3.17941e+00
       C -1.57256e+00  2.32383e+00 -2.30051e+00
       C  2.53670e-02 -1.49732e+00 -3.22170e+00
       C  1.72546e+00 -3.22167e+00  2.62714e-01
       C  9.94649e-01 -5.03174e-01  3.36519e+00
       C -1.01205e+00  2.86180e+00  1.91186e+00
       C  1.11229e+00  1.90397e+00  2.92864e+00
       C  2.65013e+00 -1.63899e+00  2.00686e+00
       C  2.11846e+00 -2.29304e+00 -2.06527e+00
       C  1.41262e-01  1.04147e+00 -3.58601e+00
       C -2.62073e+00  2.06036e+00 -1.32984e+00
       C -1.31914e+00 -1.39661e+00 -3.02620e+00
       C  3.68339e-01 -3.65574e+00 -2.19963e-01
       C  1.31530e-01 -1.59355e+00  3.38061e+00
       C -1.65770e+00  1.95645e+00  2.62310e+00
       C -2.47215e+00  2.54096e+00 -5.18922e-02
       C -1.06294e+00  8.95794e-01  3.35434e+00
       C  5.68657e-01 -2.72987e+00  2.46331e+00
       C -6.89877e-02 -3.46212e+00 -1.58486e+00
       C -2.04597e+00 -9.40492e-03 -3.06056e+00
       C -4.26991e-01  3.21798e+00 -1.87497e+00
       C  7.57981e-01 -3.67170e-01 -3.65877e+00
       C  2.59491e+00 -2.68383e+00 -6.11162e-01
       C  2.32360e+00 -6.18974e-01  2.87859e+00
       C  3.65243e-01  2.97969e+00  2.21823e+00
       C  2.44323e+00  1.79307e+00  2.38651e+00
       C  3.51669e+00 -1.16267e+00  1.06164e+00
       C  2.74101e+00 -1.09928e+00 -2.47197e+00
       C  1.15416e+00  1.84965e+00 -3.29666e+00
       C -3.54160e+00  1.00845e+00 -1.43002e+00
       C -2.11189e+00 -2.15304e+00 -2.26285e+00
       C -7.44833e-01 -3.72659e+00  6.61580e-01
       C -1.27312e+00 -1.52296e+00  3.31966e+00
       C -2.92723e+00  1.36992e+00  2.15970e+00
       C -3.33038e+00  1.66976e+00  8.18733e-01
       C -1.94102e+00 -3.08992e-01  3.38905e+00
       C -6.46288e-01 -3.27671e+00  1.98184e+00
       C -1.52042e+00 -3.33819e+00 -1.47328e+00
       C -3.19876e+00 -1.39394e-01 -2.25351e+00
       C  9.26252e-01  2.98991e+00 -2.34371e+00
       C  2.09790e+00 -2.03979e-01 -3.30336e+00
       C  3.50425e+00 -1.66196e+00 -3.42521e-01
       C  2.95886e+00  5.23785e-01  2.35204e+00
       C  1.39782e+00  3.45750e+00  1.15395e+00
       C  2.59603e+00  2.74060e+00  1.38536e+00
       C  3.79664e+00  1.93104e-01  1.23810e+00
       C  3.62157e+00 -6.68285e-01 -1.41182e+00
       C  2.46887e+00  1.14447e+00 -3.00278e+00
       C -3.90487e+00  7.26006e-01 -8.27909e-02
       C -3.30127e+00 -1.39948e+00 -1.73382e+00
       C -1.93991e+00 -3.56060e+00 -9.57830e-02
       C -1.76151e+00 -2.48125e+00  2.51119e+00
       C -3.09260e+00 -3.89442e-02  2.66145e+00
       C  3.54910e+00  2.43995e+00  2.28832e-01
       C  4.09554e+00  1.10776e+00  2.26090e-01
       C  3.91763e+00  6.17671e-01 -1.11848e+00
       C  3.40475e+00  1.58959e+00 -2.03278e+00
       C -4.21813e+00 -6.51900e-01  4.69292e-01
       C -3.67827e+00 -1.72713e+00 -3.78123e-01
       C -3.00990e+00 -2.79495e+00  3.89280e-01
       C -3.00091e+00 -2.41071e+00  1.77899e+00
       C -3.69521e+00 -1.03989e+00  1.80423e+00
      He -8.05795e-01 -7.77538e-01 -2.56414e-02
